
  32    1
  10

   0   0   4 2 3 4 6 
   6   4   5 11 10 9 8 7 
   3  10   3 11 7 5 
   1   6   4 13 10 9 7 
   3   9   4 13 12 10 8 
   1   3   2 11 7 
   9   4   2 15 12 
   3  10   4 19 17 15 14 
   3  10   4 20 17 16 14 
   2   8   3 19 16 15 
   5   8   3 19 14 13 
  10  10   3 17 16 14 
   5   5   4 24 21 20 18 
   9  10   3 24 21 18 
   2   6   3 24 20 18 
  10  10   3 27 21 18 
   6  10   3 27 22 21 
   5   7   2 31 22 
   8  10   2 27 21 
   2  10   1 22 
   4  10   4 31 29 26 25 
  10  10   1 23 
  10   3   3 29 26 25 
   7  10   3 29 27 25 
   5  10   1 28 
   1   7   1 28 
   7  10   1 28 
   5  10   1 30 
   4   7   1 30 
   4   7   1 32
   6   6   1 32
   0   0   0 
